7,1,6,2,1,2,7,2,7,3,8,4,9,4,1,5;3,1,2,2,3,2,9,2,6,4,5,4,4,4,6,5,2,5;9,1,10,1,8,2,3,3,9,3,10,3,10,4,7,4,7,5,4,5;6,1,2,1,4,1,4,2,5,2,5,3,10,2,8,3,3,4,2,4,8,5,10,5;5,1,1,1,8,1,6,3,4,3,2,3,1,3,5,5,1,4,3,5,9,5;
